32	10
19	15	19	19	14	19	19	17	20	18
0	0	0	0	0	0	0	0	0	0	0	3	2	4	9
7	1	9	19	3	1	1	1	1	1	1	2	3	11
5	14	2	17	16	1	1	1	1	3	1	1	5
9	15	15	15	6	1	1	1	1	1	1	1	5
3	12	11	11	5	1	1	2	5	1	7	1	6
5	1	8	18	1	1	1	1	1	1	3	1	7
4	5	6	7	10	1	1	1	1	1	7	1	8
8	2	4	13	12	1	1	1	1	1	1	1	10
4	8	14	19	2	5	1	1	5	6	1	1	10
5	15	13	19	1	1	1	1	1	1	1	1	12
7	1	15	10	3	6	1	1	1	1	1	1	12
6	19	1	11	1	1	1	1	1	1	1	1	13
3	18	1	7	1	1	1	1	6	1	1	1	14
1	14	6	3	1	1	1	2	1	1	2	2	15	25
4	10	6	11	1	1	8	6	5	2	1	1	16
2	8	12	19	1	1	1	1	1	1	1	1	17
9	9	5	8	1	1	7	16	1	1	1	1	18
2	2	5	19	1	3	1	1	1	1	1	1	19
7	1	15	11	5	1	4	1	1	3	1	3	20	29	31
7	7	12	11	1	1	1	1	1	1	1	1	21
6	1	8	9	1	1	1	1	1	1	1	1	22
5	8	1	15	1	1	1	1	4	1	1	1	23
7	11	9	12	1	1	1	2	1	4	4	1	24
8	12	15	9	1	1	6	5	1	1	5	1	26
8	19	2	10	1	1	1	1	1	5	1	1	26
8	19	9	8	8	2	7	1	1	2	1	1	27
7	4	6	19	1	1	1	1	1	8	1	1	28
9	16	15	13	5	1	1	1	1	1	1	1	30
6	19	15	9	1	1	1	1	2	1	1	1	30
6	8	12	5	1	1	1	1	1	6	1	1	32
6	6	5	19	4	1	1	1	1	1	3	1	32
0	0	0	0	0	0	0	0	0	0	0	0
